# Individual clause Lengths 
2 4 
# Atomic Indices as per clause (sequentially)
1 2 3 4 5 6
# Negation Code as Bit pointers (Ignored if 1st option is On.)
1 3 6 
EOF